
Gurobi 9.5.0 (win64) logging started Tue Jun  7 15:02:03 2022

Set parameter LogFile to value "C:\Users\kmajd1\Documents\NNRepLayer_v2\demos\examples\tc7_walking_example\repair_inp_out_constraint\repair_net/logs/opt_log_6_7_2022_15_1_40.log"
Gurobi Optimizer version 9.5.0 build v9.5.0rc5 (win64)
Thread count: 8 physical cores, 16 logical processors, using up to 16 threads
Optimize a model with 366 rows, 134 columns and 949 nonzeros
Model fingerprint: 0xfcdf5532
Model has 101 quadratic objective terms
Coefficient statistics:
  Matrix range     [6e-03, 3e+01]
  Objective range  [3e-03, 4e-01]
  QObjective range [2e-02, 2e+00]
  Bounds range     [1e+01, 4e+01]
  RHS range        [1e-03, 2e+01]
Presolve removed 234 rows and 19 columns
Presolve time: 0.01s
Presolved: 132 rows, 115 columns, 701 nonzeros
Presolved model has 101 quadratic objective terms
Ordering time: 0.00s

Barrier statistics:
 Dense cols : 9
 AA' NZ     : 8.240e+02
 Factor NZ  : 1.222e+03
 Factor Ops : 1.557e+04 (less than 1 second per iteration)
 Threads    : 1

                  Objective                Residual
Iter       Primal          Dual         Primal    Dual     Compl     Time
   0   1.62530532e+07 -1.63749441e+07  3.30e+03 4.32e+02  9.18e+05     0s
   1   5.07437591e+06 -5.30489382e+06  1.77e+03 2.31e+02  4.98e+05     0s
   2   2.91805444e+04 -6.76167980e+05  1.40e+02 1.83e+01  5.43e+04     0s
   3   1.51475427e+01 -4.14853930e+05  1.76e+00 2.30e-01  2.17e+03     0s
   4   9.46264232e+00 -1.57818960e+05  3.97e-01 5.19e-02  6.78e+02     0s
   5   1.06513410e+01 -1.71604145e+04  1.12e-02 1.46e-03  6.49e+01     0s
   6   1.05009753e+01 -8.25463691e+01  4.53e-05 5.92e-06  3.50e-01     0s
   7   6.24703402e+00 -1.36643648e+01  6.66e-06 8.70e-07  7.49e-02     0s
   8   3.72048168e+00  6.47514687e-01  4.61e-07 6.03e-08  1.16e-02     0s
   9   3.24087227e+00  2.33625926e+00  9.01e-08 1.18e-08  3.40e-03     0s
  10   3.16984063e+00  2.84579074e+00  2.44e-08 3.18e-09  1.22e-03     0s
  11   3.14253587e+00  3.09363788e+00  1.81e-09 2.37e-10  1.84e-04     0s
  12   3.13889319e+00  3.13765926e+00  1.00e-11 1.31e-12  4.64e-06     0s
  13   3.13873088e+00  3.13870045e+00  4.04e-12 2.51e-12  1.14e-07     0s
  14   3.13871895e+00  3.13871821e+00  4.24e-10 1.68e-10  2.85e-09     0s
  15   3.13871891e+00  3.13871883e+00  8.25e-10 1.92e-09  2.83e-12     0s

Barrier solved model in 15 iterations and 0.04 seconds (0.00 work units)
Optimal objective 3.13871891e+00

